c Generated map
c Size: 8 * 8, weights in range: 1 to 10, walls: False, with ratio 0.0
c dim 5 of 9
c
p sp 64 112
c graph contains 64 nodes and 112 arcs
c
a 1 9 6
a 9 1 6
a 1 2 5
a 2 1 5
a 2 10 2
a 10 2 2
a 2 3 2
a 3 2 2
a 3 11 8
a 11 3 8
a 3 4 4
a 4 3 4
a 4 12 9
a 12 4 9
a 4 5 9
a 5 4 9
a 5 13 8
a 13 5 8
a 5 6 10
a 6 5 10
a 6 14 4
a 14 6 4
a 6 7 10
a 7 6 10
a 7 15 3
a 15 7 3
a 7 8 5
a 8 7 5
a 8 16 4
a 16 8 4
a 9 17 5
a 17 9 5
a 9 10 7
a 10 9 7
a 10 18 8
a 18 10 8
a 10 11 3
a 11 10 3
a 11 19 8
a 19 11 8
a 11 12 9
a 12 11 9
a 12 20 7
a 20 12 7
a 12 13 4
a 13 12 4
a 13 21 3
a 21 13 3
a 13 14 10
a 14 13 10
a 14 22 8
a 22 14 8
a 14 15 2
a 15 14 2
a 15 23 8
a 23 15 8
a 15 16 6
a 16 15 6
a 16 24 10
a 24 16 10
a 17 25 5
a 25 17 5
a 17 18 4
a 18 17 4
a 18 26 3
a 26 18 3
a 18 19 6
a 19 18 6
a 19 27 8
a 27 19 8
a 19 20 5
a 20 19 5
a 20 28 7
a 28 20 7
a 20 21 8
a 21 20 8
a 21 29 7
a 29 21 7
a 21 22 2
a 22 21 2
a 22 30 9
a 30 22 9
a 22 23 8
a 23 22 8
a 23 31 1
a 31 23 1
a 23 24 4
a 24 23 4
a 24 32 10
a 32 24 10
a 25 33 7
a 33 25 7
a 25 26 5
a 26 25 5
a 26 34 5
a 34 26 5
a 26 27 2
a 27 26 2
a 27 35 8
a 35 27 8
a 27 28 9
a 28 27 9
a 28 36 7
a 36 28 7
a 28 29 1
a 29 28 1
a 29 37 9
a 37 29 9
a 29 30 4
a 30 29 4
a 30 38 8
a 38 30 8
a 30 31 4
a 31 30 4
a 31 39 8
a 39 31 8
a 31 32 6
a 32 31 6
a 32 40 10
a 40 32 10
a 33 41 6
a 41 33 6
a 33 34 3
a 34 33 3
a 34 42 2
a 42 34 2
a 34 35 6
a 35 34 6
a 35 43 10
a 43 35 10
a 35 36 8
a 36 35 8
a 36 44 3
a 44 36 3
a 36 37 9
a 37 36 9
a 37 45 1
a 45 37 1
a 37 38 10
a 38 37 10
a 38 46 7
a 46 38 7
a 38 39 6
a 39 38 6
a 39 47 1
a 47 39 1
a 39 40 10
a 40 39 10
a 40 48 2
a 48 40 2
a 41 49 4
a 49 41 4
a 41 42 7
a 42 41 7
a 42 50 1
a 50 42 1
a 42 43 1
a 43 42 1
a 43 51 3
a 51 43 3
a 43 44 10
a 44 43 10
a 44 52 1
a 52 44 1
a 44 45 7
a 45 44 7
a 45 53 9
a 53 45 9
a 45 46 9
a 46 45 9
a 46 54 1
a 54 46 1
a 46 47 7
a 47 46 7
a 47 55 10
a 55 47 10
a 47 48 2
a 48 47 2
a 48 56 5
a 56 48 5
a 49 57 2
a 57 49 2
a 49 50 8
a 50 49 8
a 50 58 3
a 58 50 3
a 50 51 1
a 51 50 1
a 51 59 9
a 59 51 9
a 51 52 10
a 52 51 10
a 52 60 5
a 60 52 5
a 52 53 3
a 53 52 3
a 53 61 10
a 61 53 10
a 53 54 6
a 54 53 6
a 54 62 2
a 62 54 2
a 54 55 4
a 55 54 4
a 55 63 10
a 63 55 10
a 55 56 9
a 56 55 9
a 56 64 6
a 64 56 6
a 57 58 3
a 58 57 3
a 58 59 1
a 59 58 1
a 59 60 1
a 60 59 1
a 60 61 2
a 61 60 2
a 61 62 7
a 62 61 7
a 62 63 7
a 63 62 7
a 63 64 3
a 64 63 3
